NAME: instance_2278
TYPE: TSP
DIMENSION: 20
EDGE_WEIGHT_TYPE: EUC_2D
NODE_COORD_SECTION
0 16.09 96.52
1 92.73 7.24
2 20.12 32.23
3 20.48 67.74
4 47.48 50.12
5 30.07 36.44
6 28.36 28.87
7 72.03 34.64
8 65.76 89.06
9 72.96 37.90
10 49.88 55.44
11 75.66 25.02
12 78.82 45.16
13 73.87 94.08
14 14.09 35.14
15 67.85 43.89
16 85.28 20.13
17 87.18 2.90
18 93.81 85.23
19 74.78 97.68
EOF
